\* test *\
Minimize
OBJ: - G_0 - G_1 + 16 I_0 + 5 I_1 + 5 I_2 + 0.0006 del_1
 + 0.000999999999998 del_2
Subject To
_C1: G_0 >= 2
_C10: I_1 >= 1
_C11: G_1 + 28.23 del_1 - 10.8696 del_2 <= 5
_C12: - G_1 - 28.23 del_1 + 10.8696 del_2 <= 0
_C13: 10.8696 del_1 - 10.8696 del_2 <= 5
_C14: - 10.8696 del_1 + 10.8696 del_2 <= 5
_C15: I_2 >= 1
_C16: - 10.8696 del_1 + 16.751 del_2 <= 5
_C17: 10.8696 del_1 - 16.751 del_2 <= 0
_C18: - 5.8824 del_2 <= 5
_C19: 5.8824 del_2 <= 5
_C2: G_0 <= 4
_C3: I_0 >= 1
_C4: G_0 - 17.361 del_1 - 5.882 del_2 <= 16
_C5: - G_0 + 17.361 del_1 + 5.882 del_2 <= 0
_C6: - 17.3611 del_1 <= 5
_C7: 17.3611 del_1 <= 5
_C8: G_1 >= 1
_C9: G_1 <= 4
Bounds
G_0 free
G_1 free
I_0 = 1
I_1 = 1
I_2 = 1
del_1 free
del_2 free
End
